894369
31 4 3290
4 23 63665
23 21 45980
21 3 23621
3 18 26533
18 39 13572
39 26 17541
26 17 12606
17 1 16361
1 20 11546
20 0 6578
0 9 6947
9 10 5506
10 34 5412
34 15 56496
15 2 71701
2 13 30026
13 16 42391
16 14 45489
14 7 26227
7 8 54349
8 5 47658
5 35 22446
35 6 11794
6 12 23211
12 27 6411
27 30 12751
30 38 9087
38 24 4093
24 22 11530
22 37 7449
37 28 745
28 33 35284
33 11 39715
11 32 3967
32 25 15458
25 36 14546
36 29 941
29 19 17244
19 31 24202
